n_tipus_finques = 13;

maxPts = 6;

definicio_finques = array2d(1..13, 1..6, [
  (1,2), (1,3), (2,1), (2,2), (3,2), (0,0),%1
  (1,1), (2,1), (3,1), (4,1), (5,1), (0,0),%2
  (1,1), (2,1), (3,1), (4,1), (4,2), (0,0),%3
  (1,1), (2,1), (3,1), (3,2), (4,2), (0,0),%4
  (1,1), (1,2), (2,1), (2,2), (3,1), (0,0),%5
  (1,1), (1,2), (1,3), (2,2), (3,2), (0,0),%6
  (1,1), (1,3), (2,1), (2,2), (2,3), (0,0),%7
  (1,1), (2,1), (3,1), (3,2), (3,3), (0,0),%8
  (1,1), (1,2), (2,2), (3,2), (3,3), (0,0),%9
  (1,2), (2,1), (2,2), (2,3), (3,2), (0,0),%10
  (1,2), (2,1), (2,2), (3,2), (4,2), (0,0),%11
  (1,1), (1,2), (2,2), (3,2), (3,3), (0,0),%12
  (1,1), (1,2), (1,3), (2,1), (2,2), (2,3) %13
]);

height = 7;
width = 7;

parcs = {9, 25, 41}; % Posicio en format lineal

camins = {18, 24, 26, 32}; % Posicio en format lineal

n_finques = 6;
finques = [3, 5, 7, 8, 11, 13];

n_incompatibles = 2;
incompatibles = [(1,6), (3,4)]; % indexos de l'array finques

finques_amb_parc = {2, 5};